* #variable= 100 #constraint= 21
* #binary= 100 #integer= 0
* NOTE: using following variable name mapping
* x1..1 : A0
* x2..2 : A1
* x3..3 : A2
* x4..4 : A3
* x5..5 : A4
* x6..6 : A5
* x7..7 : A6
* x8..8 : A7
* x9..9 : A8
* x10..10 : A9
* x11..11 : B0
* x12..12 : B1
* x13..13 : B2
* x14..14 : B3
* x15..15 : B4
* x16..16 : B5
* x17..17 : B6
* x18..18 : B7
* x19..19 : B8
* x20..20 : B9
* x21..21 : C0
* x22..22 : C1
* x23..23 : C2
* x24..24 : C3
* x25..25 : C4
* x26..26 : C5
* x27..27 : C6
* x28..28 : C7
* x29..29 : C8
* x30..30 : C9
* x31..31 : D0
* x32..32 : D1
* x33..33 : D2
* x34..34 : D3
* x35..35 : D4
* x36..36 : D5
* x37..37 : D6
* x38..38 : D7
* x39..39 : D8
* x40..40 : D9
* x41..41 : E0
* x42..42 : E1
* x43..43 : E2
* x44..44 : E3
* x45..45 : E4
* x46..46 : E5
* x47..47 : E6
* x48..48 : E7
* x49..49 : E8
* x50..50 : E9
* x51..51 : F0
* x52..52 : F1
* x53..53 : F2
* x54..54 : F3
* x55..55 : F4
* x56..56 : F5
* x57..57 : F6
* x58..58 : F7
* x59..59 : F8
* x60..60 : F9
* x61..61 : G0
* x62..62 : G1
* x63..63 : G2
* x64..64 : G3
* x65..65 : G4
* x66..66 : G5
* x67..67 : G6
* x68..68 : G7
* x69..69 : G8
* x70..70 : G9
* x71..71 : H0
* x72..72 : H1
* x73..73 : H2
* x74..74 : H3
* x75..75 : H4
* x76..76 : H5
* x77..77 : H6
* x78..78 : H7
* x79..79 : H8
* x80..80 : H9
* x81..81 : I0
* x82..82 : I1
* x83..83 : I2
* x84..84 : I3
* x85..85 : I4
* x86..86 : I5
* x87..87 : I6
* x88..88 : I7
* x89..89 : I8
* x90..90 : I9
* x91..91 : L0
* x92..92 : L1
* x93..93 : L2
* x94..94 : L3
* x95..95 : L4
* x96..96 : L5
* x97..97 : L6
* x98..98 : L7
* x99..99 : L8
* x100..100 : L9
*   Obj. scale       : 1
*   Obj. offset      : 0
* NOTE: new objective = (old objective - offset) * scale
min: +1 x2 +2 x3 +3 x4 +4 x5 +5 x6 +6 x7 +7 x8 +8 x9 +9 x10 ;
+1 x1 +1 x11 +1 x21 +1 x31 +1 x41 +1 x51 +1 x61 +1 x71 +1 x81 +1 x91 = 1 ;
+1 x2 +1 x12 +1 x22 +1 x32 +1 x42 +1 x52 +1 x62 +1 x72 +1 x82 +1 x92 = 1 ;
+1 x3 +1 x13 +1 x23 +1 x33 +1 x43 +1 x53 +1 x63 +1 x73 +1 x83 +1 x93 = 1 ;
+1 x4 +1 x14 +1 x24 +1 x34 +1 x44 +1 x54 +1 x64 +1 x74 +1 x84 +1 x94 = 1 ;
+1 x5 +1 x15 +1 x25 +1 x35 +1 x45 +1 x55 +1 x65 +1 x75 +1 x85 +1 x95 = 1 ;
+1 x6 +1 x16 +1 x26 +1 x36 +1 x46 +1 x56 +1 x66 +1 x76 +1 x86 +1 x96 = 1 ;
+1 x7 +1 x17 +1 x27 +1 x37 +1 x47 +1 x57 +1 x67 +1 x77 +1 x87 +1 x97 = 1 ;
+1 x8 +1 x18 +1 x28 +1 x38 +1 x48 +1 x58 +1 x68 +1 x78 +1 x88 +1 x98 = 1 ;
+1 x9 +1 x19 +1 x29 +1 x39 +1 x49 +1 x59 +1 x69 +1 x79 +1 x89 +1 x99 = 1 ;
+1 x10 +1 x20 +1 x30 +1 x40 +1 x50 +1 x60 +1 x70 +1 x80 +1 x90 +1 x100 = 1 ;
+202 x2 +404 x3 +606 x4 +808 x5 +1010 x6 +1212 x7 +1414 x8 +1616 x9 +1818 x10 -79 x12 -158 x13 -237 x14 -316 x15 -395 x16 -474 x17 -553 x18 -632 x19 -711 x20 +100023 x22 +200046 x23 +300069 x24 +400092 x25 +500115 x26 +600138 x27 +700161 x28 +800184 x29 +900207 x30 -89810 x32 -179620 x33 -269430 x34 -359240 x35 -449050 x36 -538860 x37 -628670 x38 -718480 x39 -808290 x40 -9980 x42 -19960 x43 -29940 x44 -39920 x45 -49900 x46 -59880 x47 -69860 x48 -79840 x49 -89820 x50 +1000 x52 +2000 x53 +3000 x54 +4000 x55 +5000 x56 +6000 x57 +7000 x58 +8000 x59 +9000 x60 +100 x62 +200 x63 +300 x64 +400 x65 +500 x66 +600 x67 +700 x68 +800 x69 +900 x70 +10000 x72 +20000 x73 +30000 x74 +40000 x75 +50000 x76 +60000 x77 +70000 x78 +80000 x79 +90000 x80 +100 x82 +200 x83 +300 x84 +400 x85 +500 x86 +600 x87 +700 x88 +800 x89 +900 x90 -1 x92 -2 x93 -3 x94 -4 x95 -5 x96 -6 x97 -7 x98 -8 x99 -9 x100 = 0 ;
+1 x1 +1 x2 +1 x3 +1 x4 +1 x5 +1 x6 +1 x7 +1 x8 +1 x9 = 1 ;
+1 x11 +1 x12 +1 x13 +1 x14 +1 x15 +1 x16 +1 x17 +1 x18 +1 x19 +1 x20 = 1 ;
+1 x21 +1 x22 +1 x23 +1 x24 +1 x25 +1 x26 +1 x27 +1 x28 +1 x29 +1 x30 = 1 ;
+1 x31 +1 x32 +1 x33 +1 x34 +1 x35 +1 x36 +1 x37 +1 x38 +1 x39 +1 x40 = 1 ;
+1 x41 +1 x42 +1 x43 +1 x44 +1 x45 +1 x46 +1 x47 +1 x48 +1 x49 +1 x50 = 1 ;
+1 x51 +1 x52 +1 x53 +1 x54 +1 x55 +1 x56 +1 x57 +1 x58 +1 x59 +1 x60 = 1 ;
+1 x61 +1 x62 +1 x63 +1 x64 +1 x65 +1 x66 +1 x67 +1 x68 +1 x69 +1 x70 = 1 ;
+1 x71 +1 x72 +1 x73 +1 x74 +1 x75 +1 x76 +1 x77 +1 x78 +1 x79 +1 x80 = 1 ;
+1 x81 +1 x82 +1 x83 +1 x84 +1 x85 +1 x86 +1 x87 +1 x88 +1 x89 +1 x90 = 1 ;
+1 x91 +1 x92 +1 x93 +1 x94 +1 x95 +1 x96 +1 x97 +1 x98 +1 x99 +1 x100 = 1 ;
